c File: flat50_3_0.col
c
c SOURCE: Joseph Culberson (joe@cs.ualberta.ca)
c DESCRIPTION: Quasi-random coloring problem
c              generated with flatness = 0
c                             probability = 0.139
c                             known coloring = 3
c                             random seed = 1105
c              Creation Date:  Tue Jun  9 12:01:15 1998
c Maximum degree = 8 Minimum degree = 0
c p edge 50 115
c cnf created by edge2cnf
p cnf 150 545
-1 -2 0
-1 -3 0
-2 -3 0
1 2 3 0
-4 -5 0
-4 -6 0
-5 -6 0
4 5 6 0
-7 -8 0
-7 -9 0
-8 -9 0
7 8 9 0
-10 -11 0
-10 -12 0
-11 -12 0
10 11 12 0
-13 -14 0
-13 -15 0
-14 -15 0
13 14 15 0
-16 -17 0
-16 -18 0
-17 -18 0
16 17 18 0
-19 -20 0
-19 -21 0
-20 -21 0
19 20 21 0
-22 -23 0
-22 -24 0
-23 -24 0
22 23 24 0
-25 -26 0
-25 -27 0
-26 -27 0
25 26 27 0
-28 -29 0
-28 -30 0
-29 -30 0
28 29 30 0
-31 -32 0
-31 -33 0
-32 -33 0
31 32 33 0
-34 -35 0
-34 -36 0
-35 -36 0
34 35 36 0
-37 -38 0
-37 -39 0
-38 -39 0
37 38 39 0
-40 -41 0
-40 -42 0
-41 -42 0
40 41 42 0
-43 -44 0
-43 -45 0
-44 -45 0
43 44 45 0
-46 -47 0
-46 -48 0
-47 -48 0
46 47 48 0
-49 -50 0
-49 -51 0
-50 -51 0
49 50 51 0
-52 -53 0
-52 -54 0
-53 -54 0
52 53 54 0
-55 -56 0
-55 -57 0
-56 -57 0
55 56 57 0
-58 -59 0
-58 -60 0
-59 -60 0
58 59 60 0
-61 -62 0
-61 -63 0
-62 -63 0
61 62 63 0
-64 -65 0
-64 -66 0
-65 -66 0
64 65 66 0
-67 -68 0
-67 -69 0
-68 -69 0
67 68 69 0
-70 -71 0
-70 -72 0
-71 -72 0
70 71 72 0
-73 -74 0
-73 -75 0
-74 -75 0
73 74 75 0
-76 -77 0
-76 -78 0
-77 -78 0
76 77 78 0
-79 -80 0
-79 -81 0
-80 -81 0
79 80 81 0
-82 -83 0
-82 -84 0
-83 -84 0
82 83 84 0
-85 -86 0
-85 -87 0
-86 -87 0
85 86 87 0
-88 -89 0
-88 -90 0
-89 -90 0
88 89 90 0
-91 -92 0
-91 -93 0
-92 -93 0
91 92 93 0
-94 -95 0
-94 -96 0
-95 -96 0
94 95 96 0
-97 -98 0
-97 -99 0
-98 -99 0
97 98 99 0
-100 -101 0
-100 -102 0
-101 -102 0
100 101 102 0
-103 -104 0
-103 -105 0
-104 -105 0
103 104 105 0
-106 -107 0
-106 -108 0
-107 -108 0
106 107 108 0
-109 -110 0
-109 -111 0
-110 -111 0
109 110 111 0
-112 -113 0
-112 -114 0
-113 -114 0
112 113 114 0
-115 -116 0
-115 -117 0
-116 -117 0
115 116 117 0
-118 -119 0
-118 -120 0
-119 -120 0
118 119 120 0
-121 -122 0
-121 -123 0
-122 -123 0
121 122 123 0
-124 -125 0
-124 -126 0
-125 -126 0
124 125 126 0
-127 -128 0
-127 -129 0
-128 -129 0
127 128 129 0
-130 -131 0
-130 -132 0
-131 -132 0
130 131 132 0
-133 -134 0
-133 -135 0
-134 -135 0
133 134 135 0
-136 -137 0
-136 -138 0
-137 -138 0
136 137 138 0
-139 -140 0
-139 -141 0
-140 -141 0
139 140 141 0
-142 -143 0
-142 -144 0
-143 -144 0
142 143 144 0
-145 -146 0
-145 -147 0
-146 -147 0
145 146 147 0
-148 -149 0
-148 -150 0
-149 -150 0
148 149 150 0
-82 -1 0
-83 -2 0
-84 -3 0
-88 -1 0
-89 -2 0
-90 -3 0
-91 -1 0
-92 -2 0
-93 -3 0
-112 -1 0
-113 -2 0
-114 -3 0
-55 -4 0
-56 -5 0
-57 -6 0
-61 -4 0
-62 -5 0
-63 -6 0
-79 -4 0
-80 -5 0
-81 -6 0
-127 -4 0
-128 -5 0
-129 -6 0
-136 -4 0
-137 -5 0
-138 -6 0
-139 -4 0
-140 -5 0
-141 -6 0
-61 -7 0
-62 -8 0
-63 -9 0
-136 -7 0
-137 -8 0
-138 -9 0
-142 -7 0
-143 -8 0
-144 -9 0
-64 -10 0
-65 -11 0
-66 -12 0
-109 -10 0
-110 -11 0
-111 -12 0
-142 -10 0
-143 -11 0
-144 -12 0
-148 -10 0
-149 -11 0
-150 -12 0
-64 -13 0
-65 -14 0
-66 -15 0
-88 -13 0
-89 -14 0
-90 -15 0
-100 -13 0
-101 -14 0
-102 -15 0
-106 -13 0
-107 -14 0
-108 -15 0
-127 -13 0
-128 -14 0
-129 -15 0
-133 -13 0
-134 -14 0
-135 -15 0
-136 -13 0
-137 -14 0
-138 -15 0
-55 -16 0
-56 -17 0
-57 -18 0
-58 -16 0
-59 -17 0
-60 -18 0
-94 -16 0
-95 -17 0
-96 -18 0
-100 -16 0
-101 -17 0
-102 -18 0
-118 -16 0
-119 -17 0
-120 -18 0
-136 -16 0
-137 -17 0
-138 -18 0
-148 -16 0
-149 -17 0
-150 -18 0
-70 -19 0
-71 -20 0
-72 -21 0
-112 -19 0
-113 -20 0
-114 -21 0
-115 -19 0
-116 -20 0
-117 -21 0
-142 -19 0
-143 -20 0
-144 -21 0
-121 -22 0
-122 -23 0
-123 -24 0
-145 -22 0
-146 -23 0
-147 -24 0
-148 -22 0
-149 -23 0
-150 -24 0
-76 -25 0
-77 -26 0
-78 -27 0
-97 -25 0
-98 -26 0
-99 -27 0
-52 -28 0
-53 -29 0
-54 -30 0
-97 -28 0
-98 -29 0
-99 -30 0
-127 -28 0
-128 -29 0
-129 -30 0
-70 -31 0
-71 -32 0
-72 -33 0
-91 -31 0
-92 -32 0
-93 -33 0
-109 -31 0
-110 -32 0
-111 -33 0
-130 -31 0
-131 -32 0
-132 -33 0
-55 -34 0
-56 -35 0
-57 -36 0
-64 -34 0
-65 -35 0
-66 -36 0
-82 -34 0
-83 -35 0
-84 -36 0
-118 -34 0
-119 -35 0
-120 -36 0
-127 -34 0
-128 -35 0
-129 -36 0
-64 -37 0
-65 -38 0
-66 -39 0
-88 -37 0
-89 -38 0
-90 -39 0
-97 -37 0
-98 -38 0
-99 -39 0
-124 -37 0
-125 -38 0
-126 -39 0
-139 -37 0
-140 -38 0
-141 -39 0
-70 -40 0
-71 -41 0
-72 -42 0
-82 -40 0
-83 -41 0
-84 -42 0
-85 -40 0
-86 -41 0
-87 -42 0
-139 -40 0
-140 -41 0
-141 -42 0
-142 -40 0
-143 -41 0
-144 -42 0
-67 -43 0
-68 -44 0
-69 -45 0
-94 -43 0
-95 -44 0
-96 -45 0
-106 -43 0
-107 -44 0
-108 -45 0
-115 -43 0
-116 -44 0
-117 -45 0
-124 -43 0
-125 -44 0
-126 -45 0
-133 -43 0
-134 -44 0
-135 -45 0
-52 -46 0
-53 -47 0
-54 -48 0
-55 -46 0
-56 -47 0
-57 -48 0
-58 -46 0
-59 -47 0
-60 -48 0
-109 -46 0
-110 -47 0
-111 -48 0
-139 -46 0
-140 -47 0
-141 -48 0
-70 -49 0
-71 -50 0
-72 -51 0
-79 -49 0
-80 -50 0
-81 -51 0
-88 -49 0
-89 -50 0
-90 -51 0
-97 -49 0
-98 -50 0
-99 -51 0
-112 -49 0
-113 -50 0
-114 -51 0
-145 -52 0
-146 -53 0
-147 -54 0
-115 -55 0
-116 -56 0
-117 -57 0
-145 -58 0
-146 -59 0
-147 -60 0
-112 -61 0
-113 -62 0
-114 -63 0
-133 -61 0
-134 -62 0
-135 -63 0
-121 -64 0
-122 -65 0
-123 -66 0
-136 -64 0
-137 -65 0
-138 -66 0
-148 -64 0
-149 -65 0
-150 -66 0
-133 -67 0
-134 -68 0
-135 -69 0
-130 -70 0
-131 -71 0
-132 -72 0
-106 -73 0
-107 -74 0
-108 -75 0
-109 -73 0
-110 -74 0
-111 -75 0
-142 -73 0
-143 -74 0
-144 -75 0
-139 -76 0
-140 -77 0
-141 -78 0
-148 -76 0
-149 -77 0
-150 -78 0
-127 -79 0
-128 -80 0
-129 -81 0
-145 -79 0
-146 -80 0
-147 -81 0
-118 -82 0
-119 -83 0
-120 -84 0
-139 -82 0
-140 -83 0
-141 -84 0
-115 -85 0
-116 -86 0
-117 -87 0
-139 -85 0
-140 -86 0
-141 -87 0
-148 -85 0
-149 -86 0
-150 -87 0
-112 -88 0
-113 -89 0
-114 -90 0
-130 -88 0
-131 -89 0
-132 -90 0
-136 -88 0
-137 -89 0
-138 -90 0
-109 -91 0
-110 -92 0
-111 -93 0
-121 -91 0
-122 -92 0
-123 -93 0
-148 -91 0
-149 -92 0
-150 -93 0
-136 -94 0
-137 -95 0
-138 -96 0
-142 -94 0
-143 -95 0
-144 -96 0
-106 -97 0
-107 -98 0
-108 -99 0
-127 -97 0
-128 -98 0
-129 -99 0
-136 -97 0
-137 -98 0
-138 -99 0
-115 -100 0
-116 -101 0
-117 -102 0
-124 -100 0
-125 -101 0
-126 -102 0
-127 -100 0
-128 -101 0
-129 -102 0
-145 -100 0
-146 -101 0
-147 -102 0
